



7 7
5 4 3 1 4 14 0 7 1 7 6 3 2 13
4 12 6 8 5 14 2 9 3 12 1 13 0 12
6 5 5 8 1 8 0 14 4 5 3 17 2 19
1 1 0 14 6 11 3 18 5 8 4 11 2 1
4 13 0 2 5 10 3 19 1 2 2 3 6 13
1 8 3 3 6 11 5 1 4 10 0 19 2 7
2 3 1 8 3 8 4 17 6 16 0 6 5 18
